proyfinal/src/viki/013/andrea/andrea-localstore/experimentInOfficeAgust.take6/worker_5/1042666c-c45e-4bde-83e3-c262f49380dc.als.cnf.out
Reading from standard input... Use '--help' for help.
============================[ Problem Statistics ]=============================
|                                                                             |
|  Number of variables:         87638                                         |
|  Number of clauses:          161767                                         |
|  Parse time:                   0.04 s                                       |
|                                                                             |
============================[ Search Statistics ]==============================
| Conflicts |          ORIGINAL         |          LEARNT          | Progress |
|           |    Vars  Clauses Literals |    Limit  Clauses Lit/Cl |          |
===============================================================================
|       100 |   61846   103408   257961 |    37916      100      8 | 29.430 % |
|       250 |   61846   103408   257961 |    41707      250     32 | 29.430 % |
|       475 |   51615    74232   186359 |    45878      460     44 | 41.104 % |
|       812 |   51564    73951   185724 |    50466      770     45 | 41.163 % |
|      1318 |   51529    73751   185258 |    55513     1137     39 | 41.202 % |
|      2077 |   51338    72943   183324 |    61064     1885     37 | 41.420 % |
|      3216 |   51259    72561   182430 |    67170     2569     37 | 41.511 % |
|      4924 |   51037    71754   180438 |    73888     4269     41 | 41.764 % |
|      7486 |   50829    70866   178326 |    81276     6810     40 | 42.001 % |
|     11330 |   50555    69722   175689 |    89404     8823     37 | 42.314 % |
===============================================================================
restarts              : 61
conflicts             : 13818          (9734 /sec)
decisions             : 41678          (0.00 % random) (29361 /sec)
propagations          : 16366895       (11530002 /sec)
conflict literals     : 528541         (45.75 % deleted)
Memory used           : 31.19 MB
CPU time              : 1.41951 s

UNSATISFIABLE
